Subject To
 vyroba: x_1 + 2x_2 -(-(2x_1 - x_3) - 3x_2) <= 8
 baleni: 2 *x_1 + 1 * x_2 <= 6
Maximize
 3x_1+ 2 * x_2
Generals
 x_2 x_1 x_3
Bounds
 5 <= x_1 > 9 \ komentar workuje
 5 > x_2 >= -Inf
 x_3 free
End